0 3958 
1 3955 
2 3954 
3 3950 
4 3947 
5 3944 
6 3943 
7 3938 
8 3937 
9 3936 
10 3935 
11 3934 
12 3932 
13 3930 
14 3927 
15 3922 
16 3920 
17 3918 
18 3917 
19 3916 
20 3915 
21 3912 
22 3912 
23 3911 
24 3909 
25 3907 
26 3906 
27 3905 
28 3900 
29 3897 
30 3895 
31 3894 
32 3891 
33 3888 
34 3887 
35 3884 
36 3880 
37 3879 
38 3878 
39 3878 
40 3873 
41 3872 
42 3870 
43 3869 
44 3864 
45 3862 
46 3855 
47 3854 
48 3851 
49 3850 
50 3848 
51 3847 
52 3846 
53 3843 
54 3840 
55 3838 
56 3838 
57 3836 
58 3835 
59 3830 
60 3822 
61 3820 
62 3818 
63 3814 
64 3809 
65 3807 
66 3806 
67 3800 
68 3799 
69 3790 
70 3790 
71 3787 
72 3782 
73 3781 
74 3780 
75 3778 
76 3775 
77 3775 
78 3775 
79 3775 
80 3775 
81 3775 
82 3775 
83 3775 
84 3775 
85 3775 
86 3775 
87 3775 
88 3775 
89 3775 
90 3775 
91 3775 
92 3775 
93 3775 
94 3775 
95 3775 
96 3775 
97 3775 
98 3775 
99 3775 
100 3775 
101 3775 
102 3775 
103 3775 
104 3775 
105 3775 
106 3775 
107 3775 
108 3775 
109 3775 
110 3775 
111 3775 
112 3775 
113 3775 
114 3775 
115 3775 
116 3775 
117 3775 
118 3775 
119 3775 
120 3775 
121 3775 
122 3775 
123 3775 
124 3775 
125 3775 
126 3775 
127 3775 
128 3775 
129 3775 
130 3775 
131 3775 
132 3775 
133 3775 
134 3775 
135 3775 
136 3775 
137 3775 
138 3775 
139 3775 
140 3775 
141 3775 
142 3775 
143 3775 
144 3775 
145 3775 
146 3775 
147 3775 
148 3775 
149 3775 
150 3775 
151 3775 
152 3775 
153 3775 
154 3775 
155 3775 
156 3775 
157 3775 
158 3775 
159 3775 
160 3775 
161 3775 
162 3775 
163 3775 
164 3775 
165 3775 
166 3775 
167 3775 
168 3775 
169 3775 
170 3775 
171 3775 
172 3775 
173 3775 
174 3775 
175 3775 
176 3775 
177 3775 
178 3775 
179 3775 
180 3775 
181 3775 
182 3775 
183 3775 
184 3775 
185 3775 
186 3775 
187 3775 
188 3775 
189 3775 
190 3775 
191 3775 
192 3775 
193 3775 
194 3775 
195 3775 
196 3775 
197 3775 
198 3775 
199 3775 
200 3775 
201 3775 
202 3775 
203 3775 
204 3775 
205 3775 
206 3775 
207 3775 
208 3775 
209 3775 
210 3775 
211 3775 
212 3775 
213 3775 
214 3775 
215 3775 
216 3775 
217 3775 
218 3775 
219 3775 
220 3775 
221 3775 
222 3775 
223 3775 
224 3775 
225 3775 
226 3775 
227 3775 
228 3775 
229 3775 
230 3775 
231 3775 
232 3775 
233 3775 
234 3775 
235 3775 
236 3775 
237 3775 
238 3775 
239 3775 
240 3775 
241 3775 
242 3775 
243 3775 
244 3775 
245 3775 
246 3775 
247 3775 
248 3775 
249 3775 
250 3775 
251 3775 
252 3775 
253 3775 
254 3775 
255 3775 
256 3775 
257 3775 
258 3775 
259 3775 
260 3775 
261 3775 
262 3775 
263 3775 
264 3775 
265 3775 
266 3775 
267 3775 
268 3775 
269 3775 
270 3775 
271 3775 
272 3775 
273 3775 
274 3775 
275 3775 
276 3775 
277 3775 
278 3775 
279 3775 
280 3775 
281 3775 
282 3775 
283 3775 
284 3775 
285 3775 
286 3775 
287 3775 
288 3775 
289 3775 
290 3775 
291 3775 
292 3775 
293 3775 
294 3775 
295 3775 
296 3775 
297 3775 
298 3775 
299 3775 
300 3775 
301 3775 
302 3775 
303 3775 
304 3775 
305 3775 
306 3775 
307 3775 
308 3775 
309 3775 
310 3775 
311 3775 
312 3775 
313 3775 
314 3775 
315 3775 
316 3775 
317 3775 
318 3775 
319 3775 
320 3775 
321 3775 
322 3775 
323 3775 
324 3775 
325 3775 
326 3775 
327 3775 
328 3775 
329 3775 
330 3775 
331 3775 
332 3775 
333 3775 
334 3775 
335 3775 
336 3775 
337 3775 
338 3775 
339 3775 
340 3775 
341 3775 
342 3775 
343 3775 
344 3775 
345 3775 
346 3775 
347 3775 
348 3775 
349 3775 
350 3775 
351 3775 
352 3775 
353 3775 
354 3775 
355 3775 
356 3775 
357 3775 
358 3775 
359 3775 
360 3775 
361 3775 
362 3775 
363 3775 
364 3775 
365 3775 
366 3775 
367 3775 
368 3775 
369 3775 
370 3775 
371 3775 
372 3775 
373 3775 
374 3775 
375 3775 
376 3775 
377 3775 
378 3775 
379 3775 
380 3775 
381 3775 
382 3775 
383 3775 
384 3775 
385 3775 
386 3775 
387 3775 
388 3775 
389 3775 
390 3775 
391 3775 
392 3775 
393 3775 
394 3775 
395 3775 
396 3775 
397 3775 
398 3775 
399 3775 
400 3775 
401 3775 
402 3775 
403 3775 
404 3775 
405 3775 
406 3775 
407 3775 
408 3775 
409 3775 
410 3775 
411 3775 
412 3775 
413 3775 
414 3775 
415 3775 
416 3775 
417 3775 
418 3775 
419 3775 
420 3775 
421 3775 
422 3775 
423 3775 
424 3775 
425 3775 
426 3775 
427 3775 
428 3775 
429 3775 
430 3775 
431 3775 
432 3775 
433 3775 
434 3775 
435 3775 
436 3775 
437 3775 
438 3775 
439 3775 
440 3775 
441 3775 
442 3775 
443 3775 
444 3775 
445 3775 
446 3775 
447 3775 
448 3775 
449 3775 
450 3775 
451 3775 
452 3775 
453 3775 
454 3775 
455 3775 
456 3775 
457 3775 
458 3775 
459 3775 
460 3775 
461 3775 
462 3775 
463 3775 
464 3775 
465 3775 
466 3775 
467 3775 
468 3775 
469 3775 
470 3775 
471 3775 
472 3775 
473 3775 
474 3775 
475 3775 
476 3775 
477 3775 
478 3775 
479 3775 
480 3775 
481 3775 
482 3775 
483 3775 
484 3775 
485 3775 
486 3775 
487 3775 
488 3775 
489 3775 
490 3775 
491 3775 
492 3775 
493 3775 
494 3775 
495 3775 
496 3775 
497 3775 
498 3775 
499 3775 
500 3775 
501 3775 
502 3775 
503 3775 
504 3775 
505 3775 
506 3775 
507 3775 
508 3775 
509 3775 
510 3775 
511 3775 
512 3775 
513 3775 
514 3775 
515 3775 
516 3775 
517 3775 
518 3775 
519 3775 
520 3775 
521 3775 
522 3775 
523 3775 
524 3775 
525 3775 
526 3775 
527 3775 
528 3775 
529 3775 
530 3775 
531 3775 
532 3775 
533 3775 
534 3775 
535 3775 
536 3775 
537 3775 
538 3775 
539 3775 
540 3775 
541 3775 
542 3775 
543 3775 
544 3775 
545 3775 
546 3775 
547 3775 
548 3775 
549 3775 
550 3775 
551 3775 
552 3775 
553 3775 
554 3775 
555 3775 
556 3775 
557 3775 
558 3775 
559 3775 
560 3775 
561 3775 
562 3775 
563 3775 
564 3775 
565 3775 
566 3775 
567 3775 
568 3775 
569 3775 
570 3775 
571 3775 
572 3775 
573 3775 
574 3775 
575 3775 
576 3775 
577 3775 
578 3775 
579 3775 
580 3775 
581 3775 
582 3775 
583 3775 
584 3775 
585 3775 
586 3775 
587 3775 
588 3775 
589 3775 
590 3775 
591 3775 
592 3775 
593 3775 
594 3775 
595 3775 
596 3775 
597 3775 
598 3775 
599 3775 
600 3775 
601 3775 
602 3775 
603 3775 
604 3775 
605 3775 
606 3775 
607 3775 
608 3775 
609 3775 
610 3775 
611 3775 
612 3775 
613 3775 
614 3775 
615 3775 
616 3775 
617 3775 
618 3775 
619 3775 
620 3775 
621 3775 
622 3775 
623 3775 
624 3775 
625 3775 
626 3775 
627 3775 
628 3775 
629 3775 
630 3775 
631 3775 
632 3775 
633 3775 
634 3775 
635 3775 
636 3775 
637 3775 
638 3775 
639 3775 
640 3775 
641 3775 
642 3775 
643 3775 
644 3775 
645 3775 
646 3775 
647 3775 
648 3775 
649 3775 
650 3775 
651 3775 
652 3775 
653 3775 
654 3775 
655 3775 
656 3775 
657 3775 
658 3775 
659 3775 
660 3775 
661 3775 
662 3775 
663 3775 
664 3775 
665 3775 
666 3775 
667 3775 
668 3775 
669 3775 
670 3775 
671 3775 
672 3775 
673 3775 
674 3775 
675 3775 
676 3775 
677 3775 
678 3775 
679 3775 
680 3775 
681 3775 
682 3775 
683 3775 
684 3775 
685 3775 
686 3775 
687 3775 
688 3775 
689 3775 
690 3775 
691 3775 
692 3775 
693 3775 
694 3775 
695 3775 
696 3775 
697 3775 
698 3775 
699 3775 
700 3775 
701 3775 
702 3775 
703 3775 
704 3775 
705 3775 
706 3775 
707 3775 
708 3775 
709 3775 
710 3775 
711 3775 
712 3775 
713 3775 
714 3775 
715 3775 
716 3775 
717 3775 
718 3775 
719 3775 
720 3775 
721 3775 
722 3775 
723 3775 
724 3775 
725 3775 
726 3775 
727 3775 
728 3775 
729 3775 
730 3775 
731 3775 
732 3775 
733 3775 
734 3775 
735 3775 
736 3775 
737 3775 
738 3775 
739 3775 
740 3775 
741 3775 
742 3775 
743 3775 
744 3775 
745 3775 
746 3775 
747 3775 
748 3775 
749 3775 
750 3775 
751 3775 
752 3775 
753 3775 
754 3775 
755 3775 
756 3775 
757 3775 
758 3775 
759 3775 
760 3775 
761 3775 
762 3775 
763 3775 
764 3775 
765 3775 
766 3775 
767 3775 
768 3775 
769 3775 
770 3775 
771 3775 
772 3775 
773 3775 
774 3775 
775 3775 
776 3775 
777 3775 
778 3775 
779 3775 
780 3775 
781 3775 
782 3775 
783 3775 
784 3775 
785 3775 
786 3775 
787 3775 
788 3775 
789 3775 
790 3775 
791 3775 
792 3775 
793 3775 
794 3775 
795 3775 
796 3775 
797 3775 
798 3775 
799 3775 
800 3775 
801 3775 
802 3775 
803 3775 
804 3775 
805 3775 
806 3775 
807 3775 
808 3775 
809 3775 
810 3775 
811 3775 
812 3775 
813 3775 
814 3775 
815 3775 
816 3775 
817 3775 
818 3775 
819 3775 
820 3775 
821 3775 
822 3775 
823 3775 
824 3775 
825 3775 
826 3775 
827 3775 
828 3775 
829 3775 
830 3775 
831 3775 
832 3775 
833 3775 
834 3775 
835 3775 
836 3775 
837 3775 
838 3775 
839 3775 
840 3775 
841 3775 
842 3775 
843 3775 
844 3775 
845 3775 
846 3775 
847 3775 
848 3775 
849 3775 
850 3775 
851 3775 
852 3775 
853 3775 
854 3775 
855 3775 
856 3775 
857 3775 
858 3775 
859 3775 
860 3775 
861 3775 
862 3775 
863 3775 
864 3775 
865 3775 
866 3775 
867 3775 
868 3775 
869 3775 
870 3775 
871 3775 
872 3775 
873 3775 
874 3775 
875 3775 
876 3775 
877 3775 
878 3775 
879 3775 
880 3775 
881 3775 
882 3775 
883 3775 
884 3775 
885 3775 
886 3775 
887 3775 
888 3775 
889 3775 
890 3775 
891 3775 
892 3775 
893 3775 
894 3775 
895 3775 
896 3775 
897 3775 
898 3775 
899 3775 
900 3775 
901 3775 
902 3775 
903 3775 
904 3775 
905 3775 
906 3775 
907 3775 
908 3775 
909 3775 
910 3775 
911 3775 
912 3775 
913 3775 
914 3775 
915 3775 
916 3775 
917 3775 
918 3775 
919 3775 
920 3775 
921 3775 
922 3775 
923 3775 
924 3775 
925 3775 
926 3775 
927 3775 
928 3775 
929 3775 
930 3775 
931 3775 
932 3775 
933 3775 
934 3775 
935 3775 
936 3775 
937 3775 
938 3775 
939 3775 
940 3775 
941 3775 
942 3775 
943 3775 
944 3775 
945 3775 
946 3775 
947 3775 
948 3775 
949 3775 
950 3775 
951 3775 
952 3775 
953 3775 
954 3775 
955 3775 
956 3775 
957 3775 
958 3775 
959 3775 
960 3775 
961 3775 
962 3775 
963 3775 
964 3775 
965 3775 
966 3775 
967 3775 
968 3775 
969 3775 
970 3775 
971 3775 
972 3775 
973 3775 
974 3775 
975 3775 
976 3775 
977 3775 
978 3775 
979 3775 
980 3775 
981 3775 
982 3775 
983 3775 
984 3775 
985 3775 
986 3775 
987 3775 
988 3775 
989 3775 
990 3775 
991 3775 
992 3775 
993 3775 
994 3775 
995 3775 
996 3775 
997 3775 
998 3775 
999 3775 
1000 3775 
1001 3775 
1002 3775 
1003 3775 
1004 3775 
1005 3775 
1006 3775 
1007 3775 
1008 3775 
1009 3775 
1010 3775 
1011 3775 
1012 3775 
1013 3775 
1014 3775 
1015 3775 
1016 3775 
1017 3775 
1018 3775 
1019 3775 
1020 3775 
1021 3775 
1022 3775 
1023 3775 
1024 3775 
1025 3775 
1026 3775 
1027 3775 
1028 3775 
1029 3775 
1030 3775 
1031 3775 
1032 3775 
1033 3775 
1034 3775 
1035 3775 
1036 3775 
1037 3775 
1038 3775 
1039 3775 
1040 3775 
1041 3775 
1042 3775 
1043 3775 
1044 3775 
1045 3775 
1046 3775 
1047 3775 
1048 3775 
1049 3775 
1050 3775 
1051 3775 
1052 3775 
1053 3775 
1054 3775 
1055 3775 
1056 3775 
1057 3775 
1058 3775 
1059 3775 
1060 3775 
1061 3775 
1062 3775 
1063 3775 
1064 3775 
1065 3775 
1066 3775 
1067 3775 
1068 3775 
1069 3775 
1070 3775 
1071 3775 
1072 3775 
1073 3775 
1074 3775 
1075 3775 
1076 3775 
1077 3775 
1078 3775 
1079 3775 
1080 3775 
1081 3775 
1082 3775 
1083 3775 
1084 3775 
1085 3775 
1086 3775 
1087 3775 
1088 3775 
1089 3775 
1090 3775 
1091 3775 
1092 3775 
1093 3775 
1094 3775 
1095 3775 
1096 3775 
1097 3775 
1098 3775 
1099 3775 
1100 3775 
1101 3775 
1102 3775 
1103 3775 
1104 3775 
1105 3775 
1106 3775 
1107 3775 
1108 3775 
1109 3775 
1110 3775 
1111 3775 
1112 3775 
1113 3775 
1114 3775 
1115 3775 
1116 3775 
1117 3775 
1118 3775 
1119 3775 
1120 3775 
1121 3775 
1122 3775 
1123 3775 
1124 3775 
1125 3775 
1126 3775 
1127 3775 
1128 3775 
1129 3775 
1130 3775 
1131 3775 
1132 3775 
1133 3775 
1134 3775 
1135 3775 
1136 3775 
1137 3775 
1138 3775 
1139 3775 
1140 3775 
1141 3775 
1142 3775 
1143 3775 
1144 3775 
1145 3775 
1146 3775 
1147 3775 
1148 3775 
1149 3775 
1150 3775 
1151 3775 
1152 3775 
1153 3775 
1154 3775 
1155 3775 
1156 3775 
1157 3775 
1158 3775 
1159 3775 
1160 3775 
1161 3775 
1162 3775 
1163 3775 
1164 3775 
1165 3775 
1166 3775 
1167 3775 
1168 3775 
1169 3775 
1170 3775 
1171 3775 
1172 3775 
1173 3775 
1174 3775 
1175 3775 
1176 3775 
1177 3775 
1178 3775 
1179 3775 
1180 3775 
1181 3775 
1182 3775 
1183 3775 
1184 3775 
1185 3775 
1186 3775 
1187 3775 
1188 3775 
1189 3775 
1190 3775 
1191 3775 
1192 3775 
1193 3775 
1194 3775 
1195 3775 
1196 3775 
1197 3775 
1198 3775 
1199 3775 
1200 3775 
1201 3775 
1202 3775 
1203 3775 
1204 3775 
1205 3775 
1206 3775 
1207 3775 
1208 3775 
1209 3775 
1210 3775 
1211 3775 
1212 3775 
1213 3775 
1214 3775 
1215 3775 
1216 3775 
1217 3775 
1218 3775 
1219 3775 
1220 3775 
1221 3775 
1222 3775 
1223 3775 
1224 3775 
1225 3775 
1226 3775 
1227 3775 
1228 3775 
1229 3775 
1230 3775 
1231 3775 
1232 3775 
1233 3775 
1234 3775 
1235 3775 
1236 3775 
1237 3775 
1238 3775 
1239 3775 
1240 3775 
1241 3775 
1242 3775 
1243 3775 
1244 3775 
1245 3775 
1246 3775 
1247 3775 
1248 3775 
1249 3775 
1250 3775 
1251 3775 
1252 3775 
1253 3775 
1254 3775 
1255 3775 
1256 3775 
1257 3775 
1258 3775 
1259 3775 
1260 3775 
1261 3775 
1262 3775 
1263 3775 
1264 3775 
1265 3775 
1266 3775 
1267 3775 
1268 3775 
1269 3775 
1270 3775 
1271 3775 
1272 3775 
1273 3775 
1274 3775 
1275 3775 
1276 3775 
1277 3775 
1278 3775 
1279 3775 
1280 3775 
1281 3775 
1282 3775 
1283 3775 
1284 3775 
1285 3775 
1286 3775 
1287 3775 
1288 3775 
1289 3775 
1290 3775 
1291 3775 
1292 3775 
1293 3775 
1294 3775 
1295 3775 
1296 3775 
1297 3775 
1298 3775 
1299 3775 
1300 3775 
1301 3775 
1302 3775 
1303 3775 
1304 3775 
1305 3775 
1306 3775 
1307 3775 
1308 3775 
1309 3775 
1310 3775 
1311 3775 
1312 3775 
1313 3775 
1314 3775 
1315 3775 
1316 3775 
1317 3775 
1318 3775 
1319 3775 
1320 3775 
1321 3775 
1322 3775 
1323 3775 
1324 3775 
1325 3775 
1326 3775 
1327 3775 
1328 3775 
1329 3775 
1330 3775 
1331 3775 
1332 3775 
1333 3775 
1334 3775 
1335 3775 
1336 3775 
1337 3775 
1338 3775 
1339 3775 
1340 3775 
1341 3775 
1342 3775 
1343 3775 
1344 3775 
1345 3775 
1346 3775 
1347 3775 
1348 3775 
1349 3775 
1350 3775 
1351 3775 
1352 3775 
1353 3775 
1354 3775 
1355 3775 
1356 3775 
1357 3775 
1358 3775 
1359 3775 
1360 3775 
1361 3775 
1362 3775 
1363 3775 
1364 3775 
1365 3775 
1366 3775 
1367 3775 
1368 3775 
1369 3775 
1370 3775 
1371 3775 
1372 3775 
1373 3775 
1374 3775 
1375 3775 
1376 3775 
1377 3775 
1378 3775 
1379 3775 
1380 3775 
1381 3775 
1382 3775 
1383 3775 
1384 3775 
1385 3775 
1386 3775 
1387 3775 
1388 3775 
1389 3775 
1390 3775 
1391 3775 
1392 3775 
1393 3775 
1394 3775 
1395 3775 
1396 3775 
1397 3775 
1398 3775 
1399 3775 
1400 3775 
1401 3775 
1402 3775 
1403 3775 
1404 3775 
1405 3775 
1406 3775 
1407 3775 
1408 3775 
1409 3775 
1410 3775 
1411 3775 
1412 3775 
1413 3775 
1414 3775 
1415 3775 
1416 3775 
1417 3775 
1418 3775 
1419 3775 
1420 3775 
1421 3775 
1422 3775 
1423 3775 
1424 3775 
1425 3775 
1426 3775 
1427 3775 
1428 3775 
1429 3775 
1430 3775 
1431 3775 
1432 3775 
1433 3775 
1434 3775 
1435 3775 
1436 3775 
1437 3775 
1438 3775 
1439 3775 
1440 3775 
1441 3775 
1442 3775 
1443 3775 
1444 3775 
1445 3775 
1446 3775 
1447 3775 
1448 3775 
1449 3775 
1450 3775 
1451 3775 
1452 3775 
1453 3775 
1454 3775 
1455 3775 
1456 3775 
1457 3775 
1458 3775 
1459 3775 
1460 3775 
1461 3775 
1462 3775 
1463 3775 
1464 3775 
1465 3775 
1466 3775 
1467 3775 
1468 3775 
1469 3775 
1470 3775 
1471 3775 
1472 3775 
1473 3775 
1474 3775 
1475 3775 
1476 3775 
1477 3775 
1478 3775 
1479 3775 
1480 3775 
1481 3775 
1482 3775 
1483 3775 
1484 3775 
1485 3775 
1486 3775 
1487 3775 
1488 3775 
1489 3775 
1490 3775 
1491 3775 
1492 3775 
1493 3775 
1494 3775 
1495 3775 
1496 3775 
1497 3775 
1498 3775 
1499 3775 
1500 3775 
1501 3775 
1502 3775 
1503 3775 
1504 3775 
1505 3775 
1506 3775 
1507 3775 
1508 3775 
1509 3775 
1510 3775 
1511 3775 
1512 3775 
1513 3775 
1514 3775 
1515 3775 
1516 3775 
1517 3775 
1518 3775 
1519 3775 
1520 3775 
1521 3775 
1522 3775 
1523 3775 
1524 3775 
1525 3775 
1526 3775 
1527 3775 
1528 3775 
1529 3775 
1530 3775 
1531 3775 
1532 3775 
1533 3775 
1534 3775 
1535 3775 
1536 3775 
1537 3775 
1538 3775 
1539 3775 
1540 3775 
1541 3775 
1542 3775 
1543 3775 
1544 3775 
1545 3775 
1546 3775 
1547 3775 
1548 3775 
1549 3775 
1550 3775 
1551 3775 
1552 3775 
1553 3775 
1554 3775 
1555 3775 
1556 3775 
1557 3775 
1558 3775 
1559 3775 
1560 3775 
1561 3775 
1562 3775 
1563 3775 
1564 3775 
1565 3775 
1566 3775 
1567 3775 
1568 3775 
1569 3775 
1570 3775 
1571 3775 
1572 3775 
1573 3775 
1574 3775 
1575 3775 
1576 3775 
1577 3775 
1578 3775 
1579 3775 
1580 3775 
1581 3775 
1582 3775 
1583 3775 
1584 3775 
1585 3775 
1586 3775 
1587 3775 
1588 3775 
1589 3775 
1590 3775 
1591 3775 
1592 3775 
1593 3775 
1594 3775 
1595 3775 
1596 3775 
1597 3775 
1598 3775 
1599 3775 
1600 3775 
1601 3775 
1602 3775 
1603 3775 
1604 3775 
1605 3775 
1606 3775 
1607 3775 
1608 3775 
1609 3775 
1610 3775 
1611 3775 
1612 3775 
1613 3775 
1614 3775 
1615 3775 
1616 3775 
1617 3775 
1618 3775 
1619 3775 
1620 3775 
1621 3775 
1622 3775 
1623 3775 
1624 3775 
1625 3775 
1626 3775 
1627 3775 
1628 3775 
1629 3775 
1630 3775 
1631 3775 
1632 3775 
1633 3775 
1634 3775 
1635 3775 
1636 3775 
1637 3775 
1638 3775 
1639 3775 
1640 3775 
1641 3775 
1642 3775 
1643 3775 
1644 3775 
1645 3775 
1646 3775 
1647 3775 
1648 3775 
1649 3775 
1650 3775 
1651 3775 
1652 3775 
1653 3775 
1654 3775 
1655 3775 
1656 3775 
1657 3775 
1658 3775 
1659 3775 
1660 3775 
1661 3775 
1662 3775 
1663 3775 
1664 3775 
1665 3775 
1666 3775 
1667 3775 
1668 3775 
1669 3775 
1670 3775 
1671 3775 
1672 3775 
1673 3775 
1674 3775 
1675 3775 
1676 3775 
1677 3775 
1678 3775 
1679 3775 
1680 3775 
1681 3775 
1682 3775 
1683 3775 
1684 3775 
1685 3775 
1686 3775 
1687 3775 
1688 3775 
1689 3775 
1690 3775 
1691 3775 
1692 3775 
1693 3775 
1694 3775 
1695 3775 
1696 3775 
1697 3775 
1698 3775 
1699 3775 
1700 3775 
1701 3775 
1702 3775 
1703 3775 
1704 3775 
1705 3775 
1706 3775 
1707 3775 
1708 3775 
1709 3775 
1710 3775 
1711 3775 
1712 3775 
1713 3775 
1714 3775 
1715 3775 
1716 3775 
1717 3775 
1718 3775 
1719 3775 
1720 3775 
1721 3775 
1722 3775 
1723 3775 
1724 3775 
1725 3775 
1726 3775 
1727 3775 
1728 3775 
1729 3775 
1730 3775 
1731 3775 
1732 3775 
1733 3775 
1734 3775 
1735 3775 
1736 3775 
1737 3775 
1738 3775 
1739 3775 
1740 3775 
1741 3775 
1742 3775 
1743 3775 
1744 3775 
1745 3775 
1746 3775 
1747 3775 
1748 3775 
1749 3775 
1750 3775 
1751 3775 
1752 3775 
1753 3775 
1754 3775 
1755 3775 
1756 3775 
1757 3775 
1758 3775 
1759 3775 
1760 3775 
1761 3775 
1762 3775 
1763 3775 
1764 3775 
1765 3775 
1766 3775 
1767 3775 
1768 3775 
1769 3775 
1770 3775 
1771 3775 
1772 3775 
1773 3775 
1774 3775 
1775 3775 
1776 3775 
1777 3775 
1778 3775 
1779 3775 
1780 3775 
1781 3775 
1782 3775 
1783 3775 
1784 3775 
1785 3775 
1786 3775 
1787 3775 
1788 3775 
1789 3775 
1790 3775 
1791 3775 
1792 3775 
1793 3775 
1794 3775 
1795 3775 
1796 3775 
1797 3775 
1798 3775 
1799 3775 
1800 3775 
1801 3775 
1802 3775 
1803 3775 
1804 3775 
1805 3775 
1806 3775 
1807 3775 
1808 3775 
1809 3775 
1810 3775 
1811 3775 
1812 3775 
1813 3775 
1814 3775 
1815 3775 
1816 3775 
1817 3775 
1818 3775 
1819 3775 
1820 3775 
1821 3775 
1822 3775 
1823 3775 
1824 3775 
1825 3775 
1826 3775 
1827 3775 
1828 3775 
1829 3775 
1830 3775 
1831 3775 
1832 3775 
1833 3775 
1834 3775 
1835 3775 
1836 3775 
1837 3775 
1838 3775 
1839 3775 
1840 3775 
1841 3775 
1842 3775 
1843 3775 
1844 3775 
1845 3775 
1846 3775 
1847 3775 
1848 3775 
1849 3775 
1850 3775 
1851 3775 
1852 3775 
1853 3775 
1854 3775 
1855 3775 
1856 3775 
1857 3775 
1858 3775 
1859 3775 
1860 3775 
1861 3775 
1862 3775 
1863 3775 
1864 3775 
1865 3775 
1866 3775 
1867 3775 
1868 3775 
1869 3775 
1870 3775 
1871 3775 
1872 3775 
1873 3775 
1874 3775 
1875 3775 
1876 3775 
1877 3775 
1878 3775 
1879 3775 
1880 3775 
1881 3775 
1882 3775 
1883 3775 
1884 3775 
1885 3775 
1886 3775 
1887 3775 
1888 3775 
1889 3775 
1890 3775 
1891 3775 
1892 3775 
1893 3775 
1894 3775 
1895 3775 
1896 3775 
1897 3775 
1898 3775 
1899 3775 
1900 3775 
1901 3775 
1902 3775 
1903 3775 
1904 3775 
1905 3775 
1906 3775 
1907 3775 
1908 3775 
1909 3775 
1910 3775 
1911 3775 
1912 3775 
1913 3775 
1914 3775 
1915 3775 
1916 3775 
1917 3775 
1918 3775 
1919 3775 
1920 3775 
1921 3775 
1922 3775 
1923 3775 
1924 3775 
1925 3775 
1926 3775 
1927 3775 
1928 3775 
1929 3775 
1930 3775 
1931 3775 
1932 3775 
1933 3775 
1934 3775 
1935 3775 
1936 3775 
1937 3775 
1938 3775 
1939 3775 
1940 3775 
1941 3775 
1942 3775 
1943 3775 
1944 3775 
1945 3775 
1946 3775 
1947 3775 
1948 3775 
1949 3775 
1950 3775 
1951 3775 
1952 3775 
1953 3775 
1954 3775 
1955 3775 
1956 3775 
1957 3775 
1958 3775 
1959 3775 
1960 3775 
1961 3775 
1962 3775 
1963 3775 
1964 3775 
1965 3775 
1966 3775 
1967 3775 
1968 3775 
1969 3775 
1970 3775 
1971 3775 
1972 3775 
1973 3775 
1974 3775 
1975 3775 
1976 3775 
1977 3775 
1978 3775 
1979 3775 
1980 3775 
1981 3775 
1982 3775 
1983 3775 
1984 3775 
1985 3775 
1986 3775 
1987 3775 
1988 3775 
1989 3775 
1990 3775 
1991 3775 
1992 3775 
1993 3775 
1994 3775 
1995 3775 
1996 3775 
1997 3775 
1998 3775 
1999 3775 
2000 3775 
2001 3775 
2002 3775 
2003 3775 
2004 3775 
2005 3775 
2006 3775 
2007 3775 
2008 3775 
2009 3775 
2010 3775 
2011 3775 
2012 3775 
2013 3775 
2014 3775 
2015 3775 
2016 3775 
2017 3775 
2018 3775 
2019 3775 
2020 3775 
2021 3775 
2022 3775 
2023 3775 
2024 3775 
2025 3775 
2026 3775 
2027 3775 
2028 3775 
2029 3775 
2030 3775 
2031 3775 
2032 3775 
2033 3775 
2034 3775 
2035 3775 
2036 3775 
2037 3775 
2038 3775 
2039 3775 
2040 3775 
2041 3775 
2042 3775 
2043 3775 
2044 3775 
2045 3775 
2046 3775 
2047 3775 
2048 3775 
2049 3775 
2050 3775 
2051 3775 
2052 3775 
2053 3775 
2054 3775 
2055 3775 
2056 3775 
2057 3775 
2058 3775 
2059 3775 
2060 3775 
2061 3775 
2062 3775 
2063 3775 
2064 3775 
2065 3775 
2066 3775 
2067 3775 
2068 3775 
2069 3775 
2070 3775 
2071 3775 
2072 3775 
2073 3775 
2074 3775 
2075 3775 
2076 3775 

